1,63,48,54,48,63,41,29,36,29,98,88,20,25,12,32,66,32,46,8,73,75,35,89,67,40,94,3,82,23,14,91,51,91,56,7,53,45,80,62,71,77,37,58,78,58,37,77,71,62,44,42,90,42,44,62,80,99,17,59,17,99,33,84,15,64,55,9,30,61,70,50,87,43,87,50,70,79,70,61,30,93,2,93,30,9,55,64,15,84,33,86,52,13,18,10,85,57,4,19,60,27,74,96,92,34,92,81,21,39,24,39,21,47,5,76,6,76,5,95,69,83,68,31,49,31,68,83,69,95,5,47,21,81,92,96,74,27,60,19,4,57,97,22,72,11,28,26,16,26,28,11,72,22,97,57,85,0,38,65,38,0,85,10,18,13,52,86,33,99,80,45,53,7,56,91,14,23,82,3,94,40,67,89,35,75,73,8,46,32,2,25,20,88,98,29,41,63,1